50
1 0 13
2 1 33
3 0 31
3 2 18
4 0 1
4 1 4
4 3 23
5 1 17
5 2 32
5 4 1
6 0 32
6 1 37
6 2 24
6 3 1
6 4 11
6 5 33
7 0 21
7 1 5
7 2 26
7 3 36
7 4 25
7 5 9
7 6 1
8 1 25
8 2 32
8 3 6
8 4 12
8 5 38
8 6 14
8 7 7
9 0 22
9 1 22
9 2 38
9 3 11
9 4 10
9 5 24
9 6 25
9 7 6
10 0 19
10 1 14
10 3 34
10 4 33
10 5 32
10 6 34
10 7 7
10 8 27
10 9 1
11 0 32
11 1 11
11 2 32
11 3 11
11 4 9
11 5 32
11 7 24
11 8 30
11 9 16
12 0 4
12 1 26
12 3 19
12 5 22
12 6 34
12 7 18
12 9 27
12 11 9
13 0 35
13 1 36
13 2 24
13 3 37
13 4 14
13 6 12
13 7 35
13 8 5
13 9 19
13 10 23
14 2 4
14 3 20
14 4 18
14 5 32
14 6 35
14 7 22
14 8 25
14 9 35
14 11 31
14 12 22
14 13 39
15 0 7
15 1 26
15 3 5
15 5 17
15 6 7
15 7 33
15 8 35
15 9 29
15 10 28
15 11 31
15 14 15
16 0 22
16 2 4
16 3 14
16 4 33
16 5 6
16 7 29
16 8 36
16 9 18
16 10 28
16 11 22
16 12 30
16 14 37
16 15 6
17 0 28
17 1 30
17 3 26
17 4 17
17 6 8
17 7 15
17 8 24
17 10 24
17 14 28
17 15 14
17 16 39
18 0 14
18 1 22
18 2 30
18 3 18
18 4 32
18 5 20
18 7 21
18 8 3
18 9 37
18 10 5
18 11 11
18 14 29
18 15 38
18 16 9
19 1 26
19 2 40
19 3 24
19 4 5
19 5 16
19 7 39
19 8 1
19 9 9
19 10 7
19 11 9
19 12 35
19 13 37
19 15 10
19 17 40
19 18 21
20 0 29
20 2 35
20 3 10
20 4 22
20 5 4
20 7 38
20 8 28
20 9 23
20 10 9
20 11 6
20 12 15
20 13 27
20 14 20
20 15 36
20 16 36
20 17 31
20 18 11
21 0 25
21 2 2
21 3 32
21 4 32
21 5 8
21 6 37
21 7 35
21 8 13
21 9 32
21 10 14
21 12 9
21 13 27
21 15 29
21 16 21
21 17 32
21 19 29
21 20 10
22 2 23
22 3 37
22 4 21
22 5 19
22 6 18
22 7 17
22 8 5
22 9 38
22 10 25
22 11 25
22 12 21
22 15 16
22 19 22
22 20 19
23 0 32
23 1 33
23 2 26
23 3 34
23 4 22
23 5 39
23 6 25
23 7 30
23 8 37
23 10 33
23 11 26
23 12 31
23 13 40
23 15 11
23 16 14
23 17 40
23 19 21
23 20 15
23 21 36
23 22 13
24 0 12
24 2 27
24 3 29
24 4 17
24 5 20
24 6 35
24 7 39
24 8 24
24 9 40
24 10 36
24 11 26
24 12 37
24 14 24
24 15 30
24 16 39
24 17 12
24 20 12
24 23 34
25 0 13
25 1 14
25 3 21
25 5 36
25 6 39
25 7 2
25 8 4
25 10 33
25 11 6
25 12 38
25 15 4
25 17 34
25 18 39
25 19 5
25 22 25
25 23 15
25 24 22
26 1 13
26 2 7
26 4 10
26 6 19
26 7 24
26 9 12
26 11 18
26 12 8
26 13 14
26 15 25
26 16 12
26 17 40
26 18 32
26 19 20
26 20 29
26 21 10
26 22 20
26 23 29
26 24 24
26 25 6
27 0 32
27 1 24
27 2 5
27 3 30
27 5 20
27 6 31
27 7 21
27 9 5
27 10 22
27 11 9
27 12 31
27 14 9
27 15 30
27 16 10
27 18 33
27 19 18
27 20 15
27 21 32
27 22 2
27 24 31
27 25 10
27 26 19
28 0 32
28 2 35
28 3 3
28 5 5
28 6 7
28 7 3
28 9 7
28 11 18
28 12 33
28 13 18
28 14 3
28 15 6
28 16 25
28 17 38
28 18 4
28 19 8
28 21 6
28 22 25
28 23 7
28 24 32
28 25 14
28 26 9
28 27 7
29 0 40
29 3 19
29 4 28
29 5 1
29 7 1
29 8 6
29 9 16
29 10 31
29 12 36
29 13 3
29 14 27
29 15 28
29 16 39
29 18 34
29 19 30
29 20 36
29 21 38
29 22 34
29 23 16
29 24 2
29 25 29
29 27 38
29 28 27
30 1 37
30 2 39
30 3 8
30 6 2
30 8 4
30 9 10
30 10 26
30 12 28
30 13 12
30 15 1
30 16 21
30 17 26
30 18 17
30 19 37
30 21 12
30 23 34
30 25 34
30 26 14
30 27 28
30 28 19
30 29 23
31 0 6
31 3 1
31 4 27
31 5 31
31 6 13
31 7 32
31 8 26
31 10 10
31 11 39
31 12 26
31 13 31
31 14 37
31 15 23
31 17 38
31 18 40
31 19 1
31 20 28
31 21 10
31 22 19
31 23 22
31 25 21
31 26 32
31 27 24
31 28 34
31 29 33
31 30 17
32 0 39
32 2 4
32 3 11
32 4 2
32 5 26
32 6 13
32 7 6
32 8 19
32 9 10
32 11 8
32 12 31
32 13 7
32 15 7
32 16 1
32 17 13
32 18 2
32 19 12
32 20 4
32 22 16
32 27 26
32 28 4
32 29 21
32 30 31
32 31 13
33 1 17
33 5 3
33 7 40
33 8 30
33 9 7
33 10 29
33 11 10
33 14 17
33 15 16
33 16 1
33 17 40
33 18 11
33 19 3
33 20 6
33 21 28
33 22 38
33 23 14
33 25 32
33 26 24
33 27 20
33 28 23
33 30 24
33 31 10
33 32 36
34 1 39
34 2 6
34 4 40
34 5 38
34 7 21
34 8 17
34 9 36
34 10 23
34 12 7
34 13 36
34 14 27
34 17 29
34 18 28
34 19 33
34 21 9
34 22 21
34 23 27
34 24 10
34 25 40
34 26 16
34 27 22
34 28 35
34 29 29
34 30 40
34 32 17
34 33 16
35 0 37
35 1 29
35 2 29
35 3 13
35 4 17
35 6 13
35 7 26
35 8 7
35 10 38
35 11 25
35 12 37
35 13 31
35 14 8
35 15 36
35 16 13
35 17 7
35 18 20
35 19 30
35 21 21
35 22 26
35 23 21
35 24 19
35 25 16
35 26 11
35 27 8
35 28 21
35 29 39
35 30 33
35 31 18
35 32 8
35 33 15
35 34 11
36 1 26
36 2 22
36 3 28
36 4 8
36 5 1
36 6 18
36 7 18
36 8 5
36 9 12
36 10 21
36 12 4
36 13 39
36 15 7
36 17 13
36 18 13
36 20 11
36 21 3
36 22 30
36 23 26
36 25 19
36 26 18
36 27 2
36 28 10
36 29 13
36 31 8
36 32 29
36 33 11
36 34 25
37 0 19
37 1 1
37 2 30
37 4 29
37 5 36
37 6 26
37 7 28
37 8 7
37 9 8
37 10 2
37 11 16
37 12 40
37 14 38
37 15 4
37 16 20
37 17 24
37 19 33
37 20 40
37 21 38
37 22 1
37 23 40
37 25 25
37 28 3
37 29 8
37 31 18
37 32 35
37 33 26
37 34 22
37 35 38
37 36 35
38 1 27
38 2 23
38 3 35
38 4 36
38 5 39
38 6 17
38 8 7
38 10 31
38 11 27
38 12 35
38 13 11
38 14 6
38 15 36
38 16 13
38 17 27
38 18 16
38 20 17
38 21 34
38 22 26
38 24 27
38 25 10
38 26 24
38 27 1
38 28 24
38 29 16
38 31 19
38 33 17
38 34 6
38 35 27
38 36 13
38 37 36
39 0 34
39 1 27
39 2 40
39 3 32
39 4 1
39 5 15
39 6 33
39 7 12
39 9 12
39 10 22
39 11 28
39 12 34
39 13 4
39 14 34
39 15 23
39 16 20
39 17 38
39 18 32
39 19 32
39 20 12
39 21 22
39 22 26
39 24 22
39 25 29
39 26 20
39 28 25
39 29 32
39 30 20
39 31 21
39 32 29
39 33 21
39 35 39
39 37 11
39 38 16
40 0 35
40 1 11
40 2 7
40 4 16
40 5 31
40 6 25
40 7 22
40 8 38
40 11 6
40 12 21
40 14 28
40 15 14
40 17 24
40 19 9
40 20 40
40 21 17
40 22 13
40 23 12
40 24 35
40 26 38
40 27 3
40 28 24
40 29 40
40 30 28
40 32 3
40 33 11
40 34 31
40 35 16
40 36 16
40 37 31
40 38 31
40 39 34
41 0 18
41 1 1
41 2 37
41 3 5
41 4 24
41 5 30
41 6 10
41 7 35
41 8 3
41 9 26
41 10 1
41 11 40
41 12 24
41 14 27
41 15 27
41 16 22
41 17 4
41 19 9
41 20 21
41 21 20
41 22 13
41 23 28
41 24 24
41 28 32
41 29 29
41 30 21
41 31 26
41 33 18
41 35 29
41 36 36
41 37 31
41 39 13
41 40 17
42 0 12
42 2 34
42 3 40
42 4 4
42 5 2
42 6 38
42 7 39
42 8 8
42 10 24
42 11 39
42 13 28
42 14 10
42 15 34
42 16 11
42 17 26
42 18 39
42 20 29
42 21 11
42 22 15
42 23 29
42 24 17
42 25 38
42 28 14
42 29 39
42 30 33
42 31 40
42 32 39
42 33 33
42 34 32
42 35 23
42 36 27
42 37 27
42 38 12
42 39 38
42 40 10
42 41 27
43 0 13
43 2 11
43 3 37
43 4 34
43 5 3
43 6 28
43 7 5
43 8 3
43 9 36
43 10 40
43 11 14
43 12 37
43 14 26
43 15 30
43 16 36
43 17 18
43 18 21
43 19 21
43 20 5
43 21 13
43 22 14
43 23 38
43 25 2
43 26 10
43 28 31
43 29 25
43 30 30
43 31 2
43 32 34
43 33 33
43 34 30
43 35 19
43 36 36
43 37 35
43 38 33
43 39 38
43 40 36
43 41 11
43 42 21
44 0 38
44 1 7
44 3 27
44 4 29
44 6 33
44 7 29
44 8 15
44 9 12
44 10 26
44 11 27
44 12 18
44 13 22
44 14 19
44 15 23
44 16 24
44 17 13
44 18 13
44 19 15
44 20 29
44 23 34
44 25 14
44 26 33
44 27 22
44 28 7
44 29 15
44 31 6
44 32 33
44 33 8
44 34 27
44 35 22
44 36 21
44 37 22
44 38 20
44 39 17
44 40 39
44 42 36
44 43 14
45 0 34
45 1 27
45 2 33
45 3 21
45 4 16
45 5 2
45 6 37
45 7 12
45 8 21
45 9 36
45 10 28
45 11 20
45 12 8
45 13 37
45 14 4
45 15 20
45 16 4
45 17 39
45 18 5
45 19 12
45 20 36
45 21 30
45 23 36
45 24 12
45 27 13
45 29 25
45 30 35
45 31 16
45 32 2
45 34 16
45 36 4
45 37 30
45 39 39
45 40 1
45 44 4
46 1 15
46 2 10
46 3 24
46 4 15
46 5 34
46 6 24
46 7 1
46 9 13
46 11 11
46 12 9
46 13 28
46 15 29
46 16 1
46 18 6
46 19 11
46 20 37
46 21 5
46 22 38
46 23 5
46 24 23
46 26 27
46 27 1
46 28 34
46 29 13
46 30 9
46 31 27
46 32 1
46 34 35
46 36 18
46 37 32
46 38 5
46 39 31
46 40 40
46 41 3
46 42 7
46 43 18
46 45 40
47 0 25
47 2 32
47 4 17
47 5 35
47 6 5
47 8 9
47 9 20
47 11 33
47 12 17
47 14 20
47 15 15
47 16 9
47 17 14
47 18 25
47 19 24
47 20 28
47 21 21
47 22 7
47 23 20
47 24 12
47 25 28
47 27 19
47 28 13
47 30 31
47 31 35
47 32 37
47 33 33
47 34 25
47 35 29
47 36 21
47 37 6
47 38 8
47 39 15
47 40 21
47 41 16
47 43 6
47 44 16
47 46 6
48 0 12
48 1 31
48 3 4
48 4 38
48 6 7
48 7 5
48 8 32
48 9 7
48 10 40
48 11 32
48 13 24
48 15 10
48 17 30
48 18 27
48 19 15
48 20 40
48 21 1
48 22 39
48 26 14
48 27 40
48 28 27
48 29 33
48 31 33
48 32 29
48 34 27
48 36 3
48 37 22
48 38 3
48 40 25
48 41 4
48 43 16
48 44 23
48 45 9
48 46 35
49 0 26
49 1 40
49 2 7
49 4 20
49 5 1
49 7 25
49 8 33
49 9 25
49 10 1
49 12 34
49 13 1
49 14 14
49 16 40
49 17 9
49 21 31
49 22 14
49 23 25
49 24 39
49 25 34
49 26 33
49 27 37
49 28 40
49 30 27
49 31 4
49 32 39
49 34 10
49 35 15
49 36 13
49 37 39
49 39 35
49 40 31
49 41 2
49 42 15
49 43 5
49 44 37
49 45 29
49 46 17
49 47 10
49 48 7
